c *********************************
c * Circuit generated by BenCGen
c *
c * Parity_398
c *
c * Ports with 1 gate(s): 1
c * Ports with 2 gate(s): 398
c * Total gates: 399
c *********************************
p cnf 797 1593
1 401 0
-1 -401 0
1 -400 0
401 -400 0
-1 -401 400 0
1 2 -402 0
-1 2 402 0
1 -2 402 0
-1 -2 -402 0
3 4 -403 0
-3 4 403 0
3 -4 403 0
-3 -4 -403 0
5 6 -404 0
-5 6 404 0
5 -6 404 0
-5 -6 -404 0
7 8 -405 0
-7 8 405 0
7 -8 405 0
-7 -8 -405 0
9 10 -406 0
-9 10 406 0
9 -10 406 0
-9 -10 -406 0
11 12 -407 0
-11 12 407 0
11 -12 407 0
-11 -12 -407 0
13 14 -408 0
-13 14 408 0
13 -14 408 0
-13 -14 -408 0
15 16 -409 0
-15 16 409 0
15 -16 409 0
-15 -16 -409 0
17 18 -410 0
-17 18 410 0
17 -18 410 0
-17 -18 -410 0
19 20 -411 0
-19 20 411 0
19 -20 411 0
-19 -20 -411 0
21 22 -412 0
-21 22 412 0
21 -22 412 0
-21 -22 -412 0
23 24 -413 0
-23 24 413 0
23 -24 413 0
-23 -24 -413 0
25 26 -414 0
-25 26 414 0
25 -26 414 0
-25 -26 -414 0
27 28 -415 0
-27 28 415 0
27 -28 415 0
-27 -28 -415 0
29 30 -416 0
-29 30 416 0
29 -30 416 0
-29 -30 -416 0
31 32 -417 0
-31 32 417 0
31 -32 417 0
-31 -32 -417 0
33 34 -418 0
-33 34 418 0
33 -34 418 0
-33 -34 -418 0
35 36 -419 0
-35 36 419 0
35 -36 419 0
-35 -36 -419 0
37 38 -420 0
-37 38 420 0
37 -38 420 0
-37 -38 -420 0
39 40 -421 0
-39 40 421 0
39 -40 421 0
-39 -40 -421 0
41 42 -422 0
-41 42 422 0
41 -42 422 0
-41 -42 -422 0
43 44 -423 0
-43 44 423 0
43 -44 423 0
-43 -44 -423 0
45 46 -424 0
-45 46 424 0
45 -46 424 0
-45 -46 -424 0
47 48 -425 0
-47 48 425 0
47 -48 425 0
-47 -48 -425 0
49 50 -426 0
-49 50 426 0
49 -50 426 0
-49 -50 -426 0
51 52 -427 0
-51 52 427 0
51 -52 427 0
-51 -52 -427 0
53 54 -428 0
-53 54 428 0
53 -54 428 0
-53 -54 -428 0
55 56 -429 0
-55 56 429 0
55 -56 429 0
-55 -56 -429 0
57 58 -430 0
-57 58 430 0
57 -58 430 0
-57 -58 -430 0
59 60 -431 0
-59 60 431 0
59 -60 431 0
-59 -60 -431 0
61 62 -432 0
-61 62 432 0
61 -62 432 0
-61 -62 -432 0
63 64 -433 0
-63 64 433 0
63 -64 433 0
-63 -64 -433 0
65 66 -434 0
-65 66 434 0
65 -66 434 0
-65 -66 -434 0
67 68 -435 0
-67 68 435 0
67 -68 435 0
-67 -68 -435 0
69 70 -436 0
-69 70 436 0
69 -70 436 0
-69 -70 -436 0
71 72 -437 0
-71 72 437 0
71 -72 437 0
-71 -72 -437 0
73 74 -438 0
-73 74 438 0
73 -74 438 0
-73 -74 -438 0
75 76 -439 0
-75 76 439 0
75 -76 439 0
-75 -76 -439 0
77 78 -440 0
-77 78 440 0
77 -78 440 0
-77 -78 -440 0
79 80 -441 0
-79 80 441 0
79 -80 441 0
-79 -80 -441 0
81 82 -442 0
-81 82 442 0
81 -82 442 0
-81 -82 -442 0
83 84 -443 0
-83 84 443 0
83 -84 443 0
-83 -84 -443 0
85 86 -444 0
-85 86 444 0
85 -86 444 0
-85 -86 -444 0
87 88 -445 0
-87 88 445 0
87 -88 445 0
-87 -88 -445 0
89 90 -446 0
-89 90 446 0
89 -90 446 0
-89 -90 -446 0
91 92 -447 0
-91 92 447 0
91 -92 447 0
-91 -92 -447 0
93 94 -448 0
-93 94 448 0
93 -94 448 0
-93 -94 -448 0
95 96 -449 0
-95 96 449 0
95 -96 449 0
-95 -96 -449 0
97 98 -450 0
-97 98 450 0
97 -98 450 0
-97 -98 -450 0
99 100 -451 0
-99 100 451 0
99 -100 451 0
-99 -100 -451 0
101 102 -452 0
-101 102 452 0
101 -102 452 0
-101 -102 -452 0
103 104 -453 0
-103 104 453 0
103 -104 453 0
-103 -104 -453 0
105 106 -454 0
-105 106 454 0
105 -106 454 0
-105 -106 -454 0
107 108 -455 0
-107 108 455 0
107 -108 455 0
-107 -108 -455 0
109 110 -456 0
-109 110 456 0
109 -110 456 0
-109 -110 -456 0
111 112 -457 0
-111 112 457 0
111 -112 457 0
-111 -112 -457 0
113 114 -458 0
-113 114 458 0
113 -114 458 0
-113 -114 -458 0
115 116 -459 0
-115 116 459 0
115 -116 459 0
-115 -116 -459 0
117 118 -460 0
-117 118 460 0
117 -118 460 0
-117 -118 -460 0
119 120 -461 0
-119 120 461 0
119 -120 461 0
-119 -120 -461 0
121 122 -462 0
-121 122 462 0
121 -122 462 0
-121 -122 -462 0
123 124 -463 0
-123 124 463 0
123 -124 463 0
-123 -124 -463 0
125 126 -464 0
-125 126 464 0
125 -126 464 0
-125 -126 -464 0
127 128 -465 0
-127 128 465 0
127 -128 465 0
-127 -128 -465 0
129 130 -466 0
-129 130 466 0
129 -130 466 0
-129 -130 -466 0
131 132 -467 0
-131 132 467 0
131 -132 467 0
-131 -132 -467 0
133 134 -468 0
-133 134 468 0
133 -134 468 0
-133 -134 -468 0
135 136 -469 0
-135 136 469 0
135 -136 469 0
-135 -136 -469 0
137 138 -470 0
-137 138 470 0
137 -138 470 0
-137 -138 -470 0
139 140 -471 0
-139 140 471 0
139 -140 471 0
-139 -140 -471 0
141 142 -472 0
-141 142 472 0
141 -142 472 0
-141 -142 -472 0
143 144 -473 0
-143 144 473 0
143 -144 473 0
-143 -144 -473 0
145 146 -474 0
-145 146 474 0
145 -146 474 0
-145 -146 -474 0
147 148 -475 0
-147 148 475 0
147 -148 475 0
-147 -148 -475 0
149 150 -476 0
-149 150 476 0
149 -150 476 0
-149 -150 -476 0
151 152 -477 0
-151 152 477 0
151 -152 477 0
-151 -152 -477 0
153 154 -478 0
-153 154 478 0
153 -154 478 0
-153 -154 -478 0
155 156 -479 0
-155 156 479 0
155 -156 479 0
-155 -156 -479 0
157 158 -480 0
-157 158 480 0
157 -158 480 0
-157 -158 -480 0
159 160 -481 0
-159 160 481 0
159 -160 481 0
-159 -160 -481 0
161 162 -482 0
-161 162 482 0
161 -162 482 0
-161 -162 -482 0
163 164 -483 0
-163 164 483 0
163 -164 483 0
-163 -164 -483 0
165 166 -484 0
-165 166 484 0
165 -166 484 0
-165 -166 -484 0
167 168 -485 0
-167 168 485 0
167 -168 485 0
-167 -168 -485 0
169 170 -486 0
-169 170 486 0
169 -170 486 0
-169 -170 -486 0
171 172 -487 0
-171 172 487 0
171 -172 487 0
-171 -172 -487 0
173 174 -488 0
-173 174 488 0
173 -174 488 0
-173 -174 -488 0
175 176 -489 0
-175 176 489 0
175 -176 489 0
-175 -176 -489 0
177 178 -490 0
-177 178 490 0
177 -178 490 0
-177 -178 -490 0
179 180 -491 0
-179 180 491 0
179 -180 491 0
-179 -180 -491 0
181 182 -492 0
-181 182 492 0
181 -182 492 0
-181 -182 -492 0
183 184 -493 0
-183 184 493 0
183 -184 493 0
-183 -184 -493 0
185 186 -494 0
-185 186 494 0
185 -186 494 0
-185 -186 -494 0
187 188 -495 0
-187 188 495 0
187 -188 495 0
-187 -188 -495 0
189 190 -496 0
-189 190 496 0
189 -190 496 0
-189 -190 -496 0
191 192 -497 0
-191 192 497 0
191 -192 497 0
-191 -192 -497 0
193 194 -498 0
-193 194 498 0
193 -194 498 0
-193 -194 -498 0
195 196 -499 0
-195 196 499 0
195 -196 499 0
-195 -196 -499 0
197 198 -500 0
-197 198 500 0
197 -198 500 0
-197 -198 -500 0
199 200 -501 0
-199 200 501 0
199 -200 501 0
-199 -200 -501 0
201 202 -502 0
-201 202 502 0
201 -202 502 0
-201 -202 -502 0
203 204 -503 0
-203 204 503 0
203 -204 503 0
-203 -204 -503 0
205 206 -504 0
-205 206 504 0
205 -206 504 0
-205 -206 -504 0
207 208 -505 0
-207 208 505 0
207 -208 505 0
-207 -208 -505 0
209 210 -506 0
-209 210 506 0
209 -210 506 0
-209 -210 -506 0
211 212 -507 0
-211 212 507 0
211 -212 507 0
-211 -212 -507 0
213 214 -508 0
-213 214 508 0
213 -214 508 0
-213 -214 -508 0
215 216 -509 0
-215 216 509 0
215 -216 509 0
-215 -216 -509 0
217 218 -510 0
-217 218 510 0
217 -218 510 0
-217 -218 -510 0
219 220 -511 0
-219 220 511 0
219 -220 511 0
-219 -220 -511 0
221 222 -512 0
-221 222 512 0
221 -222 512 0
-221 -222 -512 0
223 224 -513 0
-223 224 513 0
223 -224 513 0
-223 -224 -513 0
225 226 -514 0
-225 226 514 0
225 -226 514 0
-225 -226 -514 0
227 228 -515 0
-227 228 515 0
227 -228 515 0
-227 -228 -515 0
229 230 -516 0
-229 230 516 0
229 -230 516 0
-229 -230 -516 0
231 232 -517 0
-231 232 517 0
231 -232 517 0
-231 -232 -517 0
233 234 -518 0
-233 234 518 0
233 -234 518 0
-233 -234 -518 0
235 236 -519 0
-235 236 519 0
235 -236 519 0
-235 -236 -519 0
237 238 -520 0
-237 238 520 0
237 -238 520 0
-237 -238 -520 0
239 240 -521 0
-239 240 521 0
239 -240 521 0
-239 -240 -521 0
241 242 -522 0
-241 242 522 0
241 -242 522 0
-241 -242 -522 0
243 244 -523 0
-243 244 523 0
243 -244 523 0
-243 -244 -523 0
245 246 -524 0
-245 246 524 0
245 -246 524 0
-245 -246 -524 0
247 248 -525 0
-247 248 525 0
247 -248 525 0
-247 -248 -525 0
249 250 -526 0
-249 250 526 0
249 -250 526 0
-249 -250 -526 0
251 252 -527 0
-251 252 527 0
251 -252 527 0
-251 -252 -527 0
253 254 -528 0
-253 254 528 0
253 -254 528 0
-253 -254 -528 0
255 256 -529 0
-255 256 529 0
255 -256 529 0
-255 -256 -529 0
257 258 -530 0
-257 258 530 0
257 -258 530 0
-257 -258 -530 0
259 260 -531 0
-259 260 531 0
259 -260 531 0
-259 -260 -531 0
261 262 -532 0
-261 262 532 0
261 -262 532 0
-261 -262 -532 0
263 264 -533 0
-263 264 533 0
263 -264 533 0
-263 -264 -533 0
265 266 -534 0
-265 266 534 0
265 -266 534 0
-265 -266 -534 0
267 268 -535 0
-267 268 535 0
267 -268 535 0
-267 -268 -535 0
269 270 -536 0
-269 270 536 0
269 -270 536 0
-269 -270 -536 0
271 272 -537 0
-271 272 537 0
271 -272 537 0
-271 -272 -537 0
273 274 -538 0
-273 274 538 0
273 -274 538 0
-273 -274 -538 0
275 276 -539 0
-275 276 539 0
275 -276 539 0
-275 -276 -539 0
277 278 -540 0
-277 278 540 0
277 -278 540 0
-277 -278 -540 0
279 280 -541 0
-279 280 541 0
279 -280 541 0
-279 -280 -541 0
281 282 -542 0
-281 282 542 0
281 -282 542 0
-281 -282 -542 0
283 284 -543 0
-283 284 543 0
283 -284 543 0
-283 -284 -543 0
285 286 -544 0
-285 286 544 0
285 -286 544 0
-285 -286 -544 0
287 288 -545 0
-287 288 545 0
287 -288 545 0
-287 -288 -545 0
289 290 -546 0
-289 290 546 0
289 -290 546 0
-289 -290 -546 0
291 292 -547 0
-291 292 547 0
291 -292 547 0
-291 -292 -547 0
293 294 -548 0
-293 294 548 0
293 -294 548 0
-293 -294 -548 0
295 296 -549 0
-295 296 549 0
295 -296 549 0
-295 -296 -549 0
297 298 -550 0
-297 298 550 0
297 -298 550 0
-297 -298 -550 0
299 300 -551 0
-299 300 551 0
299 -300 551 0
-299 -300 -551 0
301 302 -552 0
-301 302 552 0
301 -302 552 0
-301 -302 -552 0
303 304 -553 0
-303 304 553 0
303 -304 553 0
-303 -304 -553 0
305 306 -554 0
-305 306 554 0
305 -306 554 0
-305 -306 -554 0
307 308 -555 0
-307 308 555 0
307 -308 555 0
-307 -308 -555 0
309 310 -556 0
-309 310 556 0
309 -310 556 0
-309 -310 -556 0
311 312 -557 0
-311 312 557 0
311 -312 557 0
-311 -312 -557 0
313 314 -558 0
-313 314 558 0
313 -314 558 0
-313 -314 -558 0
315 316 -559 0
-315 316 559 0
315 -316 559 0
-315 -316 -559 0
317 318 -560 0
-317 318 560 0
317 -318 560 0
-317 -318 -560 0
319 320 -561 0
-319 320 561 0
319 -320 561 0
-319 -320 -561 0
321 322 -562 0
-321 322 562 0
321 -322 562 0
-321 -322 -562 0
323 324 -563 0
-323 324 563 0
323 -324 563 0
-323 -324 -563 0
325 326 -564 0
-325 326 564 0
325 -326 564 0
-325 -326 -564 0
327 328 -565 0
-327 328 565 0
327 -328 565 0
-327 -328 -565 0
329 330 -566 0
-329 330 566 0
329 -330 566 0
-329 -330 -566 0
331 332 -567 0
-331 332 567 0
331 -332 567 0
-331 -332 -567 0
333 334 -568 0
-333 334 568 0
333 -334 568 0
-333 -334 -568 0
335 336 -569 0
-335 336 569 0
335 -336 569 0
-335 -336 -569 0
337 338 -570 0
-337 338 570 0
337 -338 570 0
-337 -338 -570 0
339 340 -571 0
-339 340 571 0
339 -340 571 0
-339 -340 -571 0
341 342 -572 0
-341 342 572 0
341 -342 572 0
-341 -342 -572 0
343 344 -573 0
-343 344 573 0
343 -344 573 0
-343 -344 -573 0
345 346 -574 0
-345 346 574 0
345 -346 574 0
-345 -346 -574 0
347 348 -575 0
-347 348 575 0
347 -348 575 0
-347 -348 -575 0
349 350 -576 0
-349 350 576 0
349 -350 576 0
-349 -350 -576 0
351 352 -577 0
-351 352 577 0
351 -352 577 0
-351 -352 -577 0
353 354 -578 0
-353 354 578 0
353 -354 578 0
-353 -354 -578 0
355 356 -579 0
-355 356 579 0
355 -356 579 0
-355 -356 -579 0
357 358 -580 0
-357 358 580 0
357 -358 580 0
-357 -358 -580 0
359 360 -581 0
-359 360 581 0
359 -360 581 0
-359 -360 -581 0
361 362 -582 0
-361 362 582 0
361 -362 582 0
-361 -362 -582 0
363 364 -583 0
-363 364 583 0
363 -364 583 0
-363 -364 -583 0
365 366 -584 0
-365 366 584 0
365 -366 584 0
-365 -366 -584 0
367 368 -585 0
-367 368 585 0
367 -368 585 0
-367 -368 -585 0
369 370 -586 0
-369 370 586 0
369 -370 586 0
-369 -370 -586 0
371 372 -587 0
-371 372 587 0
371 -372 587 0
-371 -372 -587 0
373 374 -588 0
-373 374 588 0
373 -374 588 0
-373 -374 -588 0
375 376 -589 0
-375 376 589 0
375 -376 589 0
-375 -376 -589 0
377 378 -590 0
-377 378 590 0
377 -378 590 0
-377 -378 -590 0
379 380 -591 0
-379 380 591 0
379 -380 591 0
-379 -380 -591 0
381 382 -592 0
-381 382 592 0
381 -382 592 0
-381 -382 -592 0
383 384 -593 0
-383 384 593 0
383 -384 593 0
-383 -384 -593 0
385 386 -594 0
-385 386 594 0
385 -386 594 0
-385 -386 -594 0
387 388 -595 0
-387 388 595 0
387 -388 595 0
-387 -388 -595 0
389 390 -596 0
-389 390 596 0
389 -390 596 0
-389 -390 -596 0
391 392 -597 0
-391 392 597 0
391 -392 597 0
-391 -392 -597 0
393 394 -598 0
-393 394 598 0
393 -394 598 0
-393 -394 -598 0
395 396 -599 0
-395 396 599 0
395 -396 599 0
-395 -396 -599 0
397 398 -600 0
-397 398 600 0
397 -398 600 0
-397 -398 -600 0
402 403 -601 0
-402 403 601 0
402 -403 601 0
-402 -403 -601 0
404 405 -602 0
-404 405 602 0
404 -405 602 0
-404 -405 -602 0
406 407 -603 0
-406 407 603 0
406 -407 603 0
-406 -407 -603 0
408 409 -604 0
-408 409 604 0
408 -409 604 0
-408 -409 -604 0
410 411 -605 0
-410 411 605 0
410 -411 605 0
-410 -411 -605 0
412 413 -606 0
-412 413 606 0
412 -413 606 0
-412 -413 -606 0
414 415 -607 0
-414 415 607 0
414 -415 607 0
-414 -415 -607 0
416 417 -608 0
-416 417 608 0
416 -417 608 0
-416 -417 -608 0
418 419 -609 0
-418 419 609 0
418 -419 609 0
-418 -419 -609 0
420 421 -610 0
-420 421 610 0
420 -421 610 0
-420 -421 -610 0
422 423 -611 0
-422 423 611 0
422 -423 611 0
-422 -423 -611 0
424 425 -612 0
-424 425 612 0
424 -425 612 0
-424 -425 -612 0
426 427 -613 0
-426 427 613 0
426 -427 613 0
-426 -427 -613 0
428 429 -614 0
-428 429 614 0
428 -429 614 0
-428 -429 -614 0
430 431 -615 0
-430 431 615 0
430 -431 615 0
-430 -431 -615 0
432 433 -616 0
-432 433 616 0
432 -433 616 0
-432 -433 -616 0
434 435 -617 0
-434 435 617 0
434 -435 617 0
-434 -435 -617 0
436 437 -618 0
-436 437 618 0
436 -437 618 0
-436 -437 -618 0
438 439 -619 0
-438 439 619 0
438 -439 619 0
-438 -439 -619 0
440 441 -620 0
-440 441 620 0
440 -441 620 0
-440 -441 -620 0
442 443 -621 0
-442 443 621 0
442 -443 621 0
-442 -443 -621 0
444 445 -622 0
-444 445 622 0
444 -445 622 0
-444 -445 -622 0
446 447 -623 0
-446 447 623 0
446 -447 623 0
-446 -447 -623 0
448 449 -624 0
-448 449 624 0
448 -449 624 0
-448 -449 -624 0
450 451 -625 0
-450 451 625 0
450 -451 625 0
-450 -451 -625 0
452 453 -626 0
-452 453 626 0
452 -453 626 0
-452 -453 -626 0
454 455 -627 0
-454 455 627 0
454 -455 627 0
-454 -455 -627 0
456 457 -628 0
-456 457 628 0
456 -457 628 0
-456 -457 -628 0
458 459 -629 0
-458 459 629 0
458 -459 629 0
-458 -459 -629 0
460 461 -630 0
-460 461 630 0
460 -461 630 0
-460 -461 -630 0
462 463 -631 0
-462 463 631 0
462 -463 631 0
-462 -463 -631 0
464 465 -632 0
-464 465 632 0
464 -465 632 0
-464 -465 -632 0
466 467 -633 0
-466 467 633 0
466 -467 633 0
-466 -467 -633 0
468 469 -634 0
-468 469 634 0
468 -469 634 0
-468 -469 -634 0
470 471 -635 0
-470 471 635 0
470 -471 635 0
-470 -471 -635 0
472 473 -636 0
-472 473 636 0
472 -473 636 0
-472 -473 -636 0
474 475 -637 0
-474 475 637 0
474 -475 637 0
-474 -475 -637 0
476 477 -638 0
-476 477 638 0
476 -477 638 0
-476 -477 -638 0
478 479 -639 0
-478 479 639 0
478 -479 639 0
-478 -479 -639 0
480 481 -640 0
-480 481 640 0
480 -481 640 0
-480 -481 -640 0
482 483 -641 0
-482 483 641 0
482 -483 641 0
-482 -483 -641 0
484 485 -642 0
-484 485 642 0
484 -485 642 0
-484 -485 -642 0
486 487 -643 0
-486 487 643 0
486 -487 643 0
-486 -487 -643 0
488 489 -644 0
-488 489 644 0
488 -489 644 0
-488 -489 -644 0
490 491 -645 0
-490 491 645 0
490 -491 645 0
-490 -491 -645 0
492 493 -646 0
-492 493 646 0
492 -493 646 0
-492 -493 -646 0
494 495 -647 0
-494 495 647 0
494 -495 647 0
-494 -495 -647 0
496 497 -648 0
-496 497 648 0
496 -497 648 0
-496 -497 -648 0
498 499 -649 0
-498 499 649 0
498 -499 649 0
-498 -499 -649 0
500 501 -650 0
-500 501 650 0
500 -501 650 0
-500 -501 -650 0
502 503 -651 0
-502 503 651 0
502 -503 651 0
-502 -503 -651 0
504 505 -652 0
-504 505 652 0
504 -505 652 0
-504 -505 -652 0
506 507 -653 0
-506 507 653 0
506 -507 653 0
-506 -507 -653 0
508 509 -654 0
-508 509 654 0
508 -509 654 0
-508 -509 -654 0
510 511 -655 0
-510 511 655 0
510 -511 655 0
-510 -511 -655 0
512 513 -656 0
-512 513 656 0
512 -513 656 0
-512 -513 -656 0
514 515 -657 0
-514 515 657 0
514 -515 657 0
-514 -515 -657 0
516 517 -658 0
-516 517 658 0
516 -517 658 0
-516 -517 -658 0
518 519 -659 0
-518 519 659 0
518 -519 659 0
-518 -519 -659 0
520 521 -660 0
-520 521 660 0
520 -521 660 0
-520 -521 -660 0
522 523 -661 0
-522 523 661 0
522 -523 661 0
-522 -523 -661 0
524 525 -662 0
-524 525 662 0
524 -525 662 0
-524 -525 -662 0
526 527 -663 0
-526 527 663 0
526 -527 663 0
-526 -527 -663 0
528 529 -664 0
-528 529 664 0
528 -529 664 0
-528 -529 -664 0
530 531 -665 0
-530 531 665 0
530 -531 665 0
-530 -531 -665 0
532 533 -666 0
-532 533 666 0
532 -533 666 0
-532 -533 -666 0
534 535 -667 0
-534 535 667 0
534 -535 667 0
-534 -535 -667 0
536 537 -668 0
-536 537 668 0
536 -537 668 0
-536 -537 -668 0
538 539 -669 0
-538 539 669 0
538 -539 669 0
-538 -539 -669 0
540 541 -670 0
-540 541 670 0
540 -541 670 0
-540 -541 -670 0
542 543 -671 0
-542 543 671 0
542 -543 671 0
-542 -543 -671 0
544 545 -672 0
-544 545 672 0
544 -545 672 0
-544 -545 -672 0
546 547 -673 0
-546 547 673 0
546 -547 673 0
-546 -547 -673 0
548 549 -674 0
-548 549 674 0
548 -549 674 0
-548 -549 -674 0
550 551 -675 0
-550 551 675 0
550 -551 675 0
-550 -551 -675 0
552 553 -676 0
-552 553 676 0
552 -553 676 0
-552 -553 -676 0
554 555 -677 0
-554 555 677 0
554 -555 677 0
-554 -555 -677 0
556 557 -678 0
-556 557 678 0
556 -557 678 0
-556 -557 -678 0
558 559 -679 0
-558 559 679 0
558 -559 679 0
-558 -559 -679 0
560 561 -680 0
-560 561 680 0
560 -561 680 0
-560 -561 -680 0
562 563 -681 0
-562 563 681 0
562 -563 681 0
-562 -563 -681 0
564 565 -682 0
-564 565 682 0
564 -565 682 0
-564 -565 -682 0
566 567 -683 0
-566 567 683 0
566 -567 683 0
-566 -567 -683 0
568 569 -684 0
-568 569 684 0
568 -569 684 0
-568 -569 -684 0
570 571 -685 0
-570 571 685 0
570 -571 685 0
-570 -571 -685 0
572 573 -686 0
-572 573 686 0
572 -573 686 0
-572 -573 -686 0
574 575 -687 0
-574 575 687 0
574 -575 687 0
-574 -575 -687 0
576 577 -688 0
-576 577 688 0
576 -577 688 0
-576 -577 -688 0
578 579 -689 0
-578 579 689 0
578 -579 689 0
-578 -579 -689 0
580 581 -690 0
-580 581 690 0
580 -581 690 0
-580 -581 -690 0
582 583 -691 0
-582 583 691 0
582 -583 691 0
-582 -583 -691 0
584 585 -692 0
-584 585 692 0
584 -585 692 0
-584 -585 -692 0
586 587 -693 0
-586 587 693 0
586 -587 693 0
-586 -587 -693 0
588 589 -694 0
-588 589 694 0
588 -589 694 0
-588 -589 -694 0
590 591 -695 0
-590 591 695 0
590 -591 695 0
-590 -591 -695 0
592 593 -696 0
-592 593 696 0
592 -593 696 0
-592 -593 -696 0
594 595 -697 0
-594 595 697 0
594 -595 697 0
-594 -595 -697 0
596 597 -698 0
-596 597 698 0
596 -597 698 0
-596 -597 -698 0
598 599 -699 0
-598 599 699 0
598 -599 699 0
-598 -599 -699 0
601 602 -700 0
-601 602 700 0
601 -602 700 0
-601 -602 -700 0
603 604 -701 0
-603 604 701 0
603 -604 701 0
-603 -604 -701 0
605 606 -702 0
-605 606 702 0
605 -606 702 0
-605 -606 -702 0
607 608 -703 0
-607 608 703 0
607 -608 703 0
-607 -608 -703 0
609 610 -704 0
-609 610 704 0
609 -610 704 0
-609 -610 -704 0
611 612 -705 0
-611 612 705 0
611 -612 705 0
-611 -612 -705 0
613 614 -706 0
-613 614 706 0
613 -614 706 0
-613 -614 -706 0
615 616 -707 0
-615 616 707 0
615 -616 707 0
-615 -616 -707 0
617 618 -708 0
-617 618 708 0
617 -618 708 0
-617 -618 -708 0
619 620 -709 0
-619 620 709 0
619 -620 709 0
-619 -620 -709 0
621 622 -710 0
-621 622 710 0
621 -622 710 0
-621 -622 -710 0
623 624 -711 0
-623 624 711 0
623 -624 711 0
-623 -624 -711 0
625 626 -712 0
-625 626 712 0
625 -626 712 0
-625 -626 -712 0
627 628 -713 0
-627 628 713 0
627 -628 713 0
-627 -628 -713 0
629 630 -714 0
-629 630 714 0
629 -630 714 0
-629 -630 -714 0
631 632 -715 0
-631 632 715 0
631 -632 715 0
-631 -632 -715 0
633 634 -716 0
-633 634 716 0
633 -634 716 0
-633 -634 -716 0
635 636 -717 0
-635 636 717 0
635 -636 717 0
-635 -636 -717 0
637 638 -718 0
-637 638 718 0
637 -638 718 0
-637 -638 -718 0
639 640 -719 0
-639 640 719 0
639 -640 719 0
-639 -640 -719 0
641 642 -720 0
-641 642 720 0
641 -642 720 0
-641 -642 -720 0
643 644 -721 0
-643 644 721 0
643 -644 721 0
-643 -644 -721 0
645 646 -722 0
-645 646 722 0
645 -646 722 0
-645 -646 -722 0
647 648 -723 0
-647 648 723 0
647 -648 723 0
-647 -648 -723 0
649 650 -724 0
-649 650 724 0
649 -650 724 0
-649 -650 -724 0
651 652 -725 0
-651 652 725 0
651 -652 725 0
-651 -652 -725 0
653 654 -726 0
-653 654 726 0
653 -654 726 0
-653 -654 -726 0
655 656 -727 0
-655 656 727 0
655 -656 727 0
-655 -656 -727 0
657 658 -728 0
-657 658 728 0
657 -658 728 0
-657 -658 -728 0
659 660 -729 0
-659 660 729 0
659 -660 729 0
-659 -660 -729 0
661 662 -730 0
-661 662 730 0
661 -662 730 0
-661 -662 -730 0
663 664 -731 0
-663 664 731 0
663 -664 731 0
-663 -664 -731 0
665 666 -732 0
-665 666 732 0
665 -666 732 0
-665 -666 -732 0
667 668 -733 0
-667 668 733 0
667 -668 733 0
-667 -668 -733 0
669 670 -734 0
-669 670 734 0
669 -670 734 0
-669 -670 -734 0
671 672 -735 0
-671 672 735 0
671 -672 735 0
-671 -672 -735 0
673 674 -736 0
-673 674 736 0
673 -674 736 0
-673 -674 -736 0
675 676 -737 0
-675 676 737 0
675 -676 737 0
-675 -676 -737 0
677 678 -738 0
-677 678 738 0
677 -678 738 0
-677 -678 -738 0
679 680 -739 0
-679 680 739 0
679 -680 739 0
-679 -680 -739 0
681 682 -740 0
-681 682 740 0
681 -682 740 0
-681 -682 -740 0
683 684 -741 0
-683 684 741 0
683 -684 741 0
-683 -684 -741 0
685 686 -742 0
-685 686 742 0
685 -686 742 0
-685 -686 -742 0
687 688 -743 0
-687 688 743 0
687 -688 743 0
-687 -688 -743 0
689 690 -744 0
-689 690 744 0
689 -690 744 0
-689 -690 -744 0
691 692 -745 0
-691 692 745 0
691 -692 745 0
-691 -692 -745 0
693 694 -746 0
-693 694 746 0
693 -694 746 0
-693 -694 -746 0
695 696 -747 0
-695 696 747 0
695 -696 747 0
-695 -696 -747 0
697 698 -748 0
-697 698 748 0
697 -698 748 0
-697 -698 -748 0
699 600 -749 0
-699 600 749 0
699 -600 749 0
-699 -600 -749 0
700 701 -750 0
-700 701 750 0
700 -701 750 0
-700 -701 -750 0
702 703 -751 0
-702 703 751 0
702 -703 751 0
-702 -703 -751 0
704 705 -752 0
-704 705 752 0
704 -705 752 0
-704 -705 -752 0
706 707 -753 0
-706 707 753 0
706 -707 753 0
-706 -707 -753 0
708 709 -754 0
-708 709 754 0
708 -709 754 0
-708 -709 -754 0
710 711 -755 0
-710 711 755 0
710 -711 755 0
-710 -711 -755 0
712 713 -756 0
-712 713 756 0
712 -713 756 0
-712 -713 -756 0
714 715 -757 0
-714 715 757 0
714 -715 757 0
-714 -715 -757 0
716 717 -758 0
-716 717 758 0
716 -717 758 0
-716 -717 -758 0
718 719 -759 0
-718 719 759 0
718 -719 759 0
-718 -719 -759 0
720 721 -760 0
-720 721 760 0
720 -721 760 0
-720 -721 -760 0
722 723 -761 0
-722 723 761 0
722 -723 761 0
-722 -723 -761 0
724 725 -762 0
-724 725 762 0
724 -725 762 0
-724 -725 -762 0
726 727 -763 0
-726 727 763 0
726 -727 763 0
-726 -727 -763 0
728 729 -764 0
-728 729 764 0
728 -729 764 0
-728 -729 -764 0
730 731 -765 0
-730 731 765 0
730 -731 765 0
-730 -731 -765 0
732 733 -766 0
-732 733 766 0
732 -733 766 0
-732 -733 -766 0
734 735 -767 0
-734 735 767 0
734 -735 767 0
-734 -735 -767 0
736 737 -768 0
-736 737 768 0
736 -737 768 0
-736 -737 -768 0
738 739 -769 0
-738 739 769 0
738 -739 769 0
-738 -739 -769 0
740 741 -770 0
-740 741 770 0
740 -741 770 0
-740 -741 -770 0
742 743 -771 0
-742 743 771 0
742 -743 771 0
-742 -743 -771 0
744 745 -772 0
-744 745 772 0
744 -745 772 0
-744 -745 -772 0
746 747 -773 0
-746 747 773 0
746 -747 773 0
-746 -747 -773 0
748 749 -774 0
-748 749 774 0
748 -749 774 0
-748 -749 -774 0
750 751 -775 0
-750 751 775 0
750 -751 775 0
-750 -751 -775 0
752 753 -776 0
-752 753 776 0
752 -753 776 0
-752 -753 -776 0
754 755 -777 0
-754 755 777 0
754 -755 777 0
-754 -755 -777 0
756 757 -778 0
-756 757 778 0
756 -757 778 0
-756 -757 -778 0
758 759 -779 0
-758 759 779 0
758 -759 779 0
-758 -759 -779 0
760 761 -780 0
-760 761 780 0
760 -761 780 0
-760 -761 -780 0
762 763 -781 0
-762 763 781 0
762 -763 781 0
-762 -763 -781 0
764 765 -782 0
-764 765 782 0
764 -765 782 0
-764 -765 -782 0
766 767 -783 0
-766 767 783 0
766 -767 783 0
-766 -767 -783 0
768 769 -784 0
-768 769 784 0
768 -769 784 0
-768 -769 -784 0
770 771 -785 0
-770 771 785 0
770 -771 785 0
-770 -771 -785 0
772 773 -786 0
-772 773 786 0
772 -773 786 0
-772 -773 -786 0
775 776 -787 0
-775 776 787 0
775 -776 787 0
-775 -776 -787 0
777 778 -788 0
-777 778 788 0
777 -778 788 0
-777 -778 -788 0
779 780 -789 0
-779 780 789 0
779 -780 789 0
-779 -780 -789 0
781 782 -790 0
-781 782 790 0
781 -782 790 0
-781 -782 -790 0
783 784 -791 0
-783 784 791 0
783 -784 791 0
-783 -784 -791 0
785 786 -792 0
-785 786 792 0
785 -786 792 0
-785 -786 -792 0
787 788 -793 0
-787 788 793 0
787 -788 793 0
-787 -788 -793 0
789 790 -794 0
-789 790 794 0
789 -790 794 0
-789 -790 -794 0
791 792 -795 0
-791 792 795 0
791 -792 795 0
-791 -792 -795 0
793 794 -796 0
-793 794 796 0
793 -794 796 0
-793 -794 -796 0
795 774 -797 0
-795 774 797 0
795 -774 797 0
-795 -774 -797 0
796 797 -399 0
-796 797 399 0
796 -797 399 0
-796 -797 -399 0
